



8 8
2 9 6 8 7 7 5 16 1 9 0 1 4 19 3 2
0 15 7 11 5 18 1 4 6 2 2 4 3 11 4 17
3 8 2 11 7 8 1 10 0 16 4 10 6 4 5 11
2 3 7 7 1 8 5 10 3 12 0 1 6 6 4 1
3 6 0 8 1 6 5 10 2 11 6 19 7 5 4 3
6 17 3 4 0 13 4 17 7 13 1 13 5 9 2 7
3 16 4 8 7 14 6 18 0 5 5 9 2 4 1 13
3 1 1 19 4 15 6 7 7 18 5 17 0 4 2 18
